30 10000
8 8986
80 8887
15 523
79 3550
32 4426
4 7319
15 5814
84 9748
64 818
80 5308
61 1857
51 881
46 3724
83 8540
53 3286
45 4877
89 3008
1 5640
21 4986
27 7897
28 8750
61 9161
67 8728
85 8660
29 6943
18 7179
39 9250
44 9061
92 7367
89 6748
